(declare-const x String)
(declare-const y String)
(declare-const m String)
(declare-const n String)
(assert (str.in.re x (re.union (str.to.re "a") (re.* (str.to.re "b")))))
(assert (str.in.re x (re.union (str.to.re "Jba") (re.++ (re.* (str.to.re "(p")) (re.+ (str.to.re "b"))))))
(assert (= 11 (str.to.int x)))
(check-sat)
(get-model)
